\ENCODING=ISO-8859-1
\Problem name: IloCplex

Minimize
 obj1: - X(1) - X(2) - X(3) - X(4) - 1000000 X(5) - 1000000 X(6) - X(7) - X(8)
       - X(9) - X(10) - X(11) - X(12) - X(13) - X(14) - X(15) - X(16) - X(17)
       - X(18) - X(19) - X(20) - X(21) - X(22) - X(23) - X(24) - X(25) - X(26)
       - X(27) - 0.5 X(28) - 0.5 X(29) - 0.5 X(30) - 0.5 X(31) - 0.5 X(32)
       - 0.5 X(33) - 0.5 X(34) + 1
Subject To
 c1: 100 X(1) + 99 X(2) + 97 X(3) + 97 X(4) + 97 X(5) + 93 X(6) + 93 X(7)
     + 92 X(8) + 92 X(9) + 88 X(10) + 83 X(11) + 83 X(12) + 79 X(13) + 76 X(14)
     + 76 X(15) + 75 X(16) + 72 X(17) + 71 X(18) + 70 X(19) + 69 X(20)
     + 67 X(21) + 66 X(22) + 63 X(23) + 62 X(24) + 62 X(25) + 61 X(26)
     + 61 X(27) + 51 X(28) + 50 X(29) + 44 X(30) + 44 X(31) + 43 X(32)
     + 43 X(33) + 40 X(34) + 39 X(35) + 37 X(36) + 37 X(37) + 30 X(38)
     + 23 X(39) + 20 X(40) + 19 X(41) + 18 X(42) + 17 X(43) + 15 X(44)
     + 14 X(45) + 13 X(46) + 13 X(47) + 12 X(48) + 8 X(49) + 8 X(50) <= 100
 c2: X(5) - X(6)  = 0
 c3: X(5) + X(6) <= 1
Bounds
 0 <= X(1) <= 1
 0 <= X(2) <= 1
 0 <= X(3) <= 1
 0 <= X(4) <= 1
 0 <= X(5) <= 1
 0 <= X(6) <= 1
 0 <= X(7) <= 1
 0 <= X(8) <= 1
 0 <= X(9) <= 1
 0 <= X(10) <= 1
 0 <= X(11) <= 1
 0 <= X(12) <= 1
 0 <= X(13) <= 1
 0 <= X(14) <= 1
 0 <= X(15) <= 1
 0 <= X(16) <= 1
 0 <= X(17) <= 1
 0 <= X(18) <= 1
 0 <= X(19) <= 1
 0 <= X(20) <= 1
 0 <= X(21) <= 1
 0 <= X(22) <= 1
 0 <= X(23) <= 1
 0 <= X(24) <= 1
 0 <= X(25) <= 1
 0 <= X(26) <= 1
 0 <= X(27) <= 1
 0 <= X(28) <= 1
 0 <= X(29) <= 1
 0 <= X(30) <= 1
 0 <= X(31) <= 1
 0 <= X(32) <= 1
 0 <= X(33) <= 1
 0 <= X(34) <= 1
 0 <= X(35) <= 1
 0 <= X(36) <= 1
 0 <= X(37) <= 1
 0 <= X(38) <= 1
 0 <= X(39) <= 1
 0 <= X(40) <= 1
 0 <= X(41) <= 1
 0 <= X(42) <= 1
 0 <= X(43) <= 1
 0 <= X(44) <= 1
 0 <= X(45) <= 1
 0 <= X(46) <= 1
 0 <= X(47) <= 1
 0 <= X(48) <= 1
 0 <= X(49) <= 1
 0 <= X(50) <= 1
Binaries
 X(1)  X(2)  X(3)  X(4)  X(5)  X(6)  X(7)  X(8)  X(9)  X(10)  X(11)  X(12) 
 X(13)  X(14)  X(15)  X(16)  X(17)  X(18)  X(19)  X(20)  X(21)  X(22)  X(23) 
 X(24)  X(25)  X(26)  X(27)  X(28)  X(29)  X(30)  X(31)  X(32)  X(33)  X(34) 
 X(35)  X(36)  X(37)  X(38)  X(39)  X(40)  X(41)  X(42)  X(43)  X(44)  X(45) 
 X(46)  X(47)  X(48)  X(49)  X(50) 
End
